(set-option :auto-config false)
(set-option :produce-unsat-cores false)
(set-option :smt.mbqi.max_iterations 10000000)
(set-option :smt.relevancy 0)
(declare-fun c0 () Bool)
(declare-fun c1 () (_ BitVec 64))
(define-fun e2 () (_ BitVec 64) (_ bv512 64))
(define-fun e3 () Bool (bvult c1 e2))
(declare-fun c4 () (_ BitVec 64))
(define-fun e5 () (_ BitVec 64) (_ bv1024 64))
(define-fun e6 () Bool (bvult c4 e5))
(define-fun e7 () (_ BitVec 64) (_ bv6 64))
(declare-fun c8 ((_ BitVec 64)) (_ BitVec 64))
(define-fun e9 () (_ BitVec 64) (c8 c4))
(define-fun e10 () Bool (= e7 e9))
(define-fun e11 () Bool (and e6 e10))
(declare-fun c12 () (_ BitVec 64))
(declare-fun c13 ((_ BitVec 64)) (_ BitVec 64))
(define-fun e14 () (_ BitVec 64) (c13 c4))
(define-fun e15 () Bool (= c12 e14))
(define-fun e16 () Bool (and c0 e3 e11 e15))
(define-fun e17 () Bool (not e16))
(declare-fun c18 () Bool)
(declare-fun c19 () Bool)
(define-fun e20 () Bool (not c19))
(declare-fun c21 () Bool)
(define-fun e22 () Bool (not c21))
(define-fun e23 () Bool (and c18 e20 e22))
(define-fun e24 () Bool (not c0))
(define-fun e25 () Bool (and e23 e24))
(define-fun e26 () Bool (not e25))
(define-fun e27 () Bool (or e17 e26))
(define-fun e28 () Bool (not e27))
(assert e28)
(check-sat)
